data;
set K:= K1 K2 K3 K4 K5 K6 K7 ;

set F:= F1 F2 ;

set Q:= Q1 Q2 ;

param T:= 45;
param V: 
	K1  K2  K3  K4  K5  K6  K7  :=
Q1	1   1   1   1   0   0   0   
Q2	0   0   0   0   1   1   1   
; # if resorce k is of type q

param TF:= 
K1 6
K2 6
K3 6
K4 6
K5 12
K6 12
K7 12
; # number of continuous time slots resource can fly

param TR:= 
K1 2
K2 2
K3 2
K4 2
K5 4
K6 4
K7 4
; #  number of continuous time slots resource k needs to rest between flights

param P:= 
K1 36
K2 36
K3 36
K4 36
K5 36
K6 36
K7 36
; #  number of continuous time slots a pilot can be present including rest times for resource k 

param N:= 
K1 4
K2 4
K3 4
K4 4
K5 2
K6 2
K7 2
; # max number of flights resource k can fly in the total time period

param A: 
	K1  K2  K3  K4  K5  K6  K7  :=
1	1   1   1   1   1   1   1   
2	1   1   1   1   1   1   1   
3	1   1   1   1   1   1   1   
4	1   1   1   1   1   1   1   
5	1   1   1   1   1   1   1   
6	1   1   1   1   1   1   1   
7	1   1   1   1   1   1   1   
8	1   1   1   1   1   1   1   
9	1   1   1   1   1   1   1   
10	1   1   1   1   1   1   1   
11	1   1   1   1   1   1   1   
12	1   1   1   1   1   1   1   
13	1   1   1   1   1   1   1   
14	1   1   1   1   1   1   1   
15	1   1   1   1   1   1   1   
16	1   1   1   1   1   1   1   
17	1   1   1   1   1   1   1   
18	1   1   1   1   1   1   1   
19	1   1   1   1   1   1   1   
20	1   1   1   1   1   1   1   
21	1   1   1   1   1   1   1   
22	1   1   1   1   1   1   1   
23	1   1   1   1   1   1   1   
24	1   1   1   1   1   1   1   
25	1   1   1   1   1   1   1   
26	1   1   1   1   1   1   1   
27	1   1   1   1   1   1   1   
28	1   1   1   1   1   1   1   
29	1   1   1   1   1   1   1   
30	1   1   1   1   1   1   1   
31	1   1   1   1   1   1   1   
32	1   1   1   1   1   1   1   
33	1   1   1   1   1   1   1   
34	1   1   1   1   1   1   1   
35	1   1   1   1   1   1   1   
36	1   1   1   1   1   1   1   
37	1   1   1   1   1   1   1   
38	1   1   1   1   1   1   1   
39	1   1   1   1   1   1   1   
40	1   1   1   1   1   1   1   
41	1   1   1   1   1   1   1   
42	1   1   1   1   1   1   1   
43	1   1   1   1   1   1   1   
44	1   1   1   1   1   1   1   
45	1   1   1   1   1   1   1   
; # availability of resorce k in time slot t

param B: 
	F1  F2  :=
Q1	0   1   
Q2	0   0   
; # if front f requires resources of type q

param U: 
	F1  F2  :=
K1	0   0   
K2	0   0   
K3	0   0   
K4	0   0   
K5	1   1   
K6	1   1   
K7	0   0   
; # transit time of resource

param C:= 
K1 900
K2 900
K3 1500
K4 4500
K5 5500
K6 5500
K7 5500
; #  water capacity of resource k

param S:= 
F1 8
F2 9
; # max number of resources that can fly at front f in the same time slot

param D:= 

[*,*,F1 ]:  K1    K2    K3    K4    K5    K6    K7    :=
1           1.79  1.79  1.79  1.42  1.07  1.07  1.07  
2           1.79  1.79  1.79  1.42  1.07  1.07  1.07  
3           1.79  1.79  1.79  1.42  1.07  1.07  1.07  
4           1.79  1.79  1.79  1.42  1.07  1.07  1.07  
5           1.79  1.79  1.79  1.42  1.07  1.07  1.07  
6           1.79  1.79  1.79  1.42  1.07  1.07  1.07  
7           1.79  1.79  1.79  1.42  1.07  1.07  1.07  
8           1.79  1.79  1.79  1.42  1.07  1.07  1.07  
9           1.79  1.79  1.79  1.42  1.07  1.07  1.07  
10          1.79  1.79  1.79  1.42  1.07  1.07  1.07  
11          1.79  1.79  1.79  1.42  1.07  1.07  1.07  
12          1.79  1.79  1.79  1.42  1.07  1.07  1.07  
13          1.79  1.79  1.79  1.42  1.07  1.07  1.07  
14          1.79  1.79  1.79  1.42  1.07  1.07  1.07  
15          1.79  1.79  1.79  1.42  1.07  1.07  1.07  
16          1.79  1.79  1.79  1.42  1.07  1.07  1.07  
17          1.79  1.79  1.79  1.42  1.07  1.07  1.07  
18          1.79  1.79  1.79  1.42  1.07  1.07  1.07  
19          1.79  1.79  1.79  1.42  1.07  1.07  1.07  
20          1.79  1.79  1.79  1.42  1.07  1.07  1.07  
21          1.79  1.79  1.79  1.42  1.07  1.07  1.07  
22          1.79  1.79  1.79  1.42  1.07  1.07  1.07  
23          1.79  1.79  1.79  1.42  1.07  1.07  1.07  
24          1.79  1.79  1.79  1.42  1.07  1.07  1.07  
25          1.70  1.70  1.70  1.35  1.02  1.02  1.02  
26          1.70  1.70  1.70  1.35  1.02  1.02  1.02  
27          1.70  1.70  1.70  1.35  1.02  1.02  1.02  
28          1.70  1.70  1.70  1.35  1.02  1.02  1.02  
29          1.70  1.70  1.70  1.35  1.02  1.02  1.02  
30          1.70  1.70  1.70  1.35  1.02  1.02  1.02  
31          1.70  1.70  1.70  1.35  1.02  1.02  1.02  
32          1.70  1.70  1.70  1.35  1.02  1.02  1.02  
33          1.70  1.70  1.70  1.35  1.02  1.02  1.02  
34          1.79  1.79  1.79  1.42  1.07  1.07  1.07  
35          1.79  1.79  1.79  1.42  1.07  1.07  1.07  
36          1.79  1.79  1.79  1.42  1.07  1.07  1.07  
37          1.79  1.79  1.79  1.42  1.07  1.07  1.07  
38          1.79  1.79  1.79  1.42  1.07  1.07  1.07  
39          1.79  1.79  1.79  1.42  1.07  1.07  1.07  
40          1.79  1.79  1.79  1.42  1.07  1.07  1.07  
41          1.79  1.79  1.79  1.42  1.07  1.07  1.07  
42          1.79  1.79  1.79  1.42  1.07  1.07  1.07  
43          1.79  1.79  1.79  1.42  1.07  1.07  1.07  
44          1.79  1.79  1.79  1.42  1.07  1.07  1.07  
45          1.79  1.79  1.79  1.42  1.07  1.07  1.07  

[*,*,F2 ]:  K1    K2    K3    K4    K5    K6    K7    :=
1           1.72  1.72  1.72  1.37  1.03  1.03  1.03  
2           1.72  1.72  1.72  1.37  1.03  1.03  1.03  
3           1.72  1.72  1.72  1.37  1.03  1.03  1.03  
4           1.72  1.72  1.72  1.37  1.03  1.03  1.03  
5           1.72  1.72  1.72  1.37  1.03  1.03  1.03  
6           1.72  1.72  1.72  1.37  1.03  1.03  1.03  
7           1.72  1.72  1.72  1.37  1.03  1.03  1.03  
8           1.72  1.72  1.72  1.37  1.03  1.03  1.03  
9           1.72  1.72  1.72  1.37  1.03  1.03  1.03  
10          1.72  1.72  1.72  1.37  1.03  1.03  1.03  
11          1.72  1.72  1.72  1.37  1.03  1.03  1.03  
12          1.72  1.72  1.72  1.37  1.03  1.03  1.03  
13          1.72  1.72  1.72  1.37  1.03  1.03  1.03  
14          1.72  1.72  1.72  1.37  1.03  1.03  1.03  
15          1.72  1.72  1.72  1.37  1.03  1.03  1.03  
16          1.72  1.72  1.72  1.37  1.03  1.03  1.03  
17          1.72  1.72  1.72  1.37  1.03  1.03  1.03  
18          1.72  1.72  1.72  1.37  1.03  1.03  1.03  
19          1.72  1.72  1.72  1.37  1.03  1.03  1.03  
20          1.72  1.72  1.72  1.37  1.03  1.03  1.03  
21          1.72  1.72  1.72  1.37  1.03  1.03  1.03  
22          1.72  1.72  1.72  1.37  1.03  1.03  1.03  
23          1.72  1.72  1.72  1.37  1.03  1.03  1.03  
24          1.72  1.72  1.72  1.37  1.03  1.03  1.03  
25          1.63  1.63  1.63  1.30  0.98  0.98  0.98  
26          1.63  1.63  1.63  1.30  0.98  0.98  0.98  
27          1.63  1.63  1.63  1.30  0.98  0.98  0.98  
28          1.63  1.63  1.63  1.30  0.98  0.98  0.98  
29          1.63  1.63  1.63  1.30  0.98  0.98  0.98  
30          1.63  1.63  1.63  1.30  0.98  0.98  0.98  
31          1.63  1.63  1.63  1.30  0.98  0.98  0.98  
32          1.63  1.63  1.63  1.30  0.98  0.98  0.98  
33          1.63  1.63  1.63  1.30  0.98  0.98  0.98  
34          1.72  1.72  1.72  1.37  1.03  1.03  1.03  
35          1.72  1.72  1.72  1.37  1.03  1.03  1.03  
36          1.72  1.72  1.72  1.37  1.03  1.03  1.03  
37          1.72  1.72  1.72  1.37  1.03  1.03  1.03  
38          1.72  1.72  1.72  1.37  1.03  1.03  1.03  
39          1.72  1.72  1.72  1.37  1.03  1.03  1.03  
40          1.72  1.72  1.72  1.37  1.03  1.03  1.03  
41          1.72  1.72  1.72  1.37  1.03  1.03  1.03  
42          1.72  1.72  1.72  1.37  1.03  1.03  1.03  
43          1.72  1.72  1.72  1.37  1.03  1.03  1.03  
44          1.72  1.72  1.72  1.37  1.03  1.03  1.03  
45          1.72  1.72  1.72  1.37  1.03  1.03  1.03  
; # downloads resource k can do at front f in time t if intermediate time slot

param E:= 

[*,*,F1 ]:  K1    K2    K3    K4    K5    K6    K7    :=
1           0.34  0.46  0.21  0.09  0.43  0.31  0.51  
2           0.34  0.46  0.21  0.09  0.43  0.31  0.51  
3           0.34  0.46  0.21  0.09  0.43  0.31  0.51  
4           0.34  0.46  0.21  0.09  0.43  0.31  0.51  
5           0.34  0.46  0.21  0.09  0.43  0.31  0.51  
6           0.34  0.46  0.21  0.09  0.43  0.31  0.51  
7           0.34  0.46  0.21  0.09  0.43  0.31  0.51  
8           0.34  0.46  0.21  0.09  0.43  0.31  0.51  
9           0.34  0.46  0.21  0.09  0.43  0.31  0.51  
10          0.34  0.46  0.21  0.09  0.43  0.31  0.51  
11          0.34  0.46  0.21  0.09  0.43  0.31  0.51  
12          0.34  0.46  0.21  0.09  0.43  0.31  0.51  
13          0.34  0.46  0.21  0.09  0.43  0.31  0.51  
14          0.34  0.46  0.21  0.09  0.43  0.31  0.51  
15          0.34  0.46  0.21  0.09  0.43  0.31  0.51  
16          0.34  0.46  0.21  0.09  0.43  0.31  0.51  
17          0.34  0.46  0.21  0.09  0.43  0.31  0.51  
18          0.34  0.46  0.21  0.09  0.43  0.31  0.51  
19          0.34  0.46  0.21  0.09  0.43  0.31  0.51  
20          0.34  0.46  0.21  0.09  0.43  0.31  0.51  
21          0.34  0.46  0.21  0.09  0.43  0.31  0.51  
22          0.34  0.46  0.21  0.09  0.43  0.31  0.51  
23          0.34  0.46  0.21  0.09  0.43  0.31  0.51  
24          0.34  0.46  0.21  0.09  0.43  0.31  0.51  
25          0.32  0.44  0.20  0.08  0.41  0.29  0.49  
26          0.32  0.44  0.20  0.08  0.41  0.29  0.49  
27          0.32  0.44  0.20  0.08  0.41  0.29  0.49  
28          0.32  0.44  0.20  0.08  0.41  0.29  0.49  
29          0.32  0.44  0.20  0.08  0.41  0.29  0.49  
30          0.32  0.44  0.20  0.08  0.41  0.29  0.49  
31          0.32  0.44  0.20  0.08  0.41  0.29  0.49  
32          0.32  0.44  0.20  0.08  0.41  0.29  0.49  
33          0.32  0.44  0.20  0.08  0.41  0.29  0.49  
34          0.34  0.46  0.21  0.09  0.43  0.31  0.51  
35          0.34  0.46  0.21  0.09  0.43  0.31  0.51  
36          0.34  0.46  0.21  0.09  0.43  0.31  0.51  
37          0.34  0.46  0.21  0.09  0.43  0.31  0.51  
38          0.34  0.46  0.21  0.09  0.43  0.31  0.51  
39          0.34  0.46  0.21  0.09  0.43  0.31  0.51  
40          0.34  0.46  0.21  0.09  0.43  0.31  0.51  
41          0.34  0.46  0.21  0.09  0.43  0.31  0.51  
42          0.34  0.46  0.21  0.09  0.43  0.31  0.51  
43          0.34  0.46  0.21  0.09  0.43  0.31  0.51  
44          0.34  0.46  0.21  0.09  0.43  0.31  0.51  
45          0.34  0.46  0.21  0.09  0.43  0.31  0.51  

[*,*,F2 ]:  K1    K2    K3    K4    K5    K6    K7    :=
1           0.26  0.53  0.05  0.11  0.48  0.31  0.51  
2           0.26  0.53  0.05  0.11  0.48  0.31  0.51  
3           0.26  0.53  0.05  0.11  0.48  0.31  0.51  
4           0.26  0.53  0.05  0.11  0.48  0.31  0.51  
5           0.26  0.53  0.05  0.11  0.48  0.31  0.51  
6           0.26  0.53  0.05  0.11  0.48  0.31  0.51  
7           0.26  0.53  0.05  0.11  0.48  0.31  0.51  
8           0.26  0.53  0.05  0.11  0.48  0.31  0.51  
9           0.26  0.53  0.05  0.11  0.48  0.31  0.51  
10          0.26  0.53  0.05  0.11  0.48  0.31  0.51  
11          0.26  0.53  0.05  0.11  0.48  0.31  0.51  
12          0.26  0.53  0.05  0.11  0.48  0.31  0.51  
13          0.26  0.53  0.05  0.11  0.48  0.31  0.51  
14          0.26  0.53  0.05  0.11  0.48  0.31  0.51  
15          0.26  0.53  0.05  0.11  0.48  0.31  0.51  
16          0.26  0.53  0.05  0.11  0.48  0.31  0.51  
17          0.26  0.53  0.05  0.11  0.48  0.31  0.51  
18          0.26  0.53  0.05  0.11  0.48  0.31  0.51  
19          0.26  0.53  0.05  0.11  0.48  0.31  0.51  
20          0.26  0.53  0.05  0.11  0.48  0.31  0.51  
21          0.26  0.53  0.05  0.11  0.48  0.31  0.51  
22          0.26  0.53  0.05  0.11  0.48  0.31  0.51  
23          0.26  0.53  0.05  0.11  0.48  0.31  0.51  
24          0.26  0.53  0.05  0.11  0.48  0.31  0.51  
25          0.25  0.51  0.05  0.10  0.46  0.29  0.49  
26          0.25  0.51  0.05  0.10  0.46  0.29  0.49  
27          0.25  0.51  0.05  0.10  0.46  0.29  0.49  
28          0.25  0.51  0.05  0.10  0.46  0.29  0.49  
29          0.25  0.51  0.05  0.10  0.46  0.29  0.49  
30          0.25  0.51  0.05  0.10  0.46  0.29  0.49  
31          0.25  0.51  0.05  0.10  0.46  0.29  0.49  
32          0.25  0.51  0.05  0.10  0.46  0.29  0.49  
33          0.25  0.51  0.05  0.10  0.46  0.29  0.49  
34          0.26  0.53  0.05  0.11  0.48  0.31  0.51  
35          0.26  0.53  0.05  0.11  0.48  0.31  0.51  
36          0.26  0.53  0.05  0.11  0.48  0.31  0.51  
37          0.26  0.53  0.05  0.11  0.48  0.31  0.51  
38          0.26  0.53  0.05  0.11  0.48  0.31  0.51  
39          0.26  0.53  0.05  0.11  0.48  0.31  0.51  
40          0.26  0.53  0.05  0.11  0.48  0.31  0.51  
41          0.26  0.53  0.05  0.11  0.48  0.31  0.51  
42          0.26  0.53  0.05  0.11  0.48  0.31  0.51  
43          0.26  0.53  0.05  0.11  0.48  0.31  0.51  
44          0.26  0.53  0.05  0.11  0.48  0.31  0.51  
45          0.26  0.53  0.05  0.11  0.48  0.31  0.51  
; # downloads resource k can do at front f in time t if starting or ending flight

param W: 
	F1        F2        :=
1	678.47    678.47    
2	2578.19   2578.19   
3	2578.19   2578.19   
4	2578.19   2578.19   
5	2578.19   2578.19   
6	2578.19   2578.19   
7	2578.19   2578.19   
8	2578.19   2578.19   
9	2578.19   2578.19   
10	2578.19   2578.19   
11	2578.19   2578.19   
12	2578.19   2578.19   
13	2578.19   2578.19   
14	2578.19   2578.19   
15	2578.19   2578.19   
16	2578.19   2578.19   
17	2578.19   2578.19   
18	2578.19   2578.19   
19	2985.27   2985.27   
20	2985.27   2985.27   
21	2985.27   2985.27   
22	2985.27   2985.27   
23	2985.27   2985.27   
24	2985.27   2985.27   
25	2985.27   2985.27   
26	2985.27   2985.27   
27	2985.27   2985.27   
28	2985.27   2985.27   
29	2985.27   2985.27   
30	2985.27   2985.27   
31	2985.27   2985.27   
32	2985.27   2985.27   
33	2985.27   2985.27   
34	2985.27   2985.27   
35	2578.19   2578.19   
36	2578.19   2578.19   
37	2578.19   2578.19   
38	2578.19   2578.19   
39	2578.19   2578.19   
40	2578.19   2578.19   
41	2578.19   2578.19   
42	2578.19   2578.19   
43	2578.19   2578.19   
44	2578.19   2578.19   
45	678.47    678.47    
; # water needed at front f in time slot t

param M := 100000000; 

param a1:= 10000000;

param a2:= 100;

param a3:= 0.0001;
